91.5 101.5 104.5 105.5 125.5 123.5 100.5 120.5 124.5 118.5 107.5 122.5 121.5 107.5 120.5 130.5 124.5 138.5 152.5 151.5 168.5 140.5 141.5 127.5 160.5 142.5 140.5 167.5 167.5 159.5 138.5 168.5 162.5 158.5 169.5 160.5 161.5 190.5 178.5 164.5 178.5 187.5 175.5 191.5 187.5 170.5 170.5 169.5 171.5 196.5 174.5 200.5 193.5 213.5 195.5 190.5 214.5 218.5 218.5 210.5 211.5 221.5 224.5 225.5 245.5 243.5 220.5 240.5 244.5 238.5 227.5 242.5 241.5 227.5 240.5 250.5 244.5 258.5 272.5 271.5 288.5 260.5 261.5 247.5 280.5 262.5 260.5 287.5 287.5 279.5 258.5 288.5 282.5 278.5 289.5 280.5 281.5 310.5 298.5 284.5 298.5 307.5 295.5 311.5 307.5 290.5 290.5 289.5 291.5 316.5 294.5 320.5 313.5 333.5 315.5 310.5 334.5 338.5 338.5 330.5